30334.5,43.06,47.42
28530.86,45.78,50.42
33765.13,38.69,42.6
29309.82,44.56,49.08
29442.12,44.36,48.86
30086.94,43.41,47.81
33588.07,38.89,42.83
32173.12,40.6,44.71
27431.42,47.62,52.44
27952.17,46.73,51.46
28911.52,45.18,49.75
32976.11,39.61,43.62
30514.92,42.81,47.14
25922.51,50.39,55.49
35628.68,36.66,40.37
35703.53,36.59,40.29
28170.27,46.37,51.06
24666.52,52.95,58.31
29158.47,44.8,49.33
29569.74,44.17,48.65
